29596
0 1 1 0 1 1 1 1 1 0 1 1 1 1 0 1 1 1 1 1 1 1 0 0 0 1 0 1 1 1 
18 19 21 27 2 12 15 27 18 28 4 28 13 1 28 18 1 20 16 27 18 16 5 2 10 18 27 19 29 2 19 19 4 16 27 6 20 8 16 16 18 8 6 4 8 19 13 21 19 20 27 16 21 16 8 6 11 8 18 25 29 2 7 8 13 11 5 17 28 25 18 12 19 8 5 13 20 5 8 16 10 17 8 25 29 13 6 5 27 7 28 6 25 25 2 13 11 6 17 28 28 15 25 18 4 2 4 16 16 13 19 4 27 12 12 8 28 7 17 8 20 11 17 19 4 16 2 11 19 17 28 21 25 20 1 8 1 13 28 10 12 27 11 11 25 5 16 15 27 25 21 17 10 17 8 11 2 15 13 13 13 27 10 2 5 27 5 4 1 21 1 20 19 10 4 2 27 10 29 10 5 21 21 19 12 8 28 10 17 21 2 21 6 4 7 12 7 15 10 19 
